param set_len = 22;
param target_sum = 6292283200;
param values := [1] 1056644463 [2] 925195101 [3] 693994721 [4] 888331804 [5] 180412359 [6] 714253683 [7] 900131377 [8] 1014449184 [9] 290526329 [10] 255591184 [11] 391497947 [12] 642400645 [13] 208519174 [14] 199035127 [15] 330790485 [16] 507608185 [17] 531625887 [18] 235589531 [19] 1022797151 [20] 525311141 [21] 166726776 [22] 1070346848 ;
